# Objective value = 6
x0,1_2 0
x0,1_6 0
x0,1_11 1
x0,1_12 0
x0,1_13 0
x0,1_14 0
x0,1_18 0
x0,1_20 0
x0,1_25 0
x0,1_31 0
x0,1_32 0
x0,1_34 0
x0,1_45 0
x0,2_2 0
x0,2_6 0
x0,2_11 0
x0,2_12 0
x0,2_13 1
x0,2_14 0
x0,2_18 0
x0,2_20 0
x0,2_25 0
x0,2_31 0
x0,2_32 0
x0,2_34 0
x0,2_45 0
x0,3_2 0
x0,3_6 0
x0,3_11 0
x0,3_12 0
x0,3_13 0
x0,3_14 0
x0,3_18 0
x0,3_20 0
x0,3_25 1
x0,3_31 0
x0,3_32 0
x0,3_34 0
x0,3_45 0
x0,4_2 0
x0,4_6 0
x0,4_11 0
x0,4_12 0
x0,4_13 0
x0,4_14 0
x0,4_18 0
x0,4_20 0
x0,4_25 0
x0,4_31 1
x0,4_32 0
x0,4_34 0
x0,4_45 0
x0,5_2 0
x0,5_6 0
x0,5_11 0
x0,5_12 0
x0,5_13 0
x0,5_14 0
x0,5_18 0
x0,5_20 0
x0,5_25 0
x0,5_31 0
x0,5_32 0
x0,5_34 0
x0,5_45 1
x0,6_2 0
x0,6_6 0
x0,6_11 0
x0,6_12 0
x0,6_13 0
x0,6_14 0
x0,6_18 0
x0,6_20 0
x0,6_25 0
x0,6_31 0
x0,6_32 0
x0,6_34 0
x0,6_45 0
x0,7_2 0
x0,7_6 0
x0,7_11 0
x0,7_12 0
x0,7_13 0
x0,7_14 0
x0,7_18 0
x0,7_20 0
x0,7_25 0
x0,7_31 0
x0,7_32 0
x0,7_34 0
x0,7_45 0
x0,8_2 0
x0,8_6 0
x0,8_11 0
x0,8_12 0
x0,8_13 0
x0,8_14 0
x0,8_18 0
x0,8_20 0
x0,8_25 0
x0,8_31 0
x0,8_32 0
x0,8_34 0
x0,8_45 0
x0,9_2 0
x0,9_6 0
x0,9_11 0
x0,9_12 0
x0,9_13 0
x0,9_14 0
x0,9_18 0
x0,9_20 0
x0,9_25 0
x0,9_31 0
x0,9_32 0
x0,9_34 0
x0,9_45 0
x0,10_2 0
x0,10_6 0
x0,10_11 0
x0,10_12 0
x0,10_13 0
x0,10_14 0
x0,10_18 0
x0,10_20 0
x0,10_25 0
x0,10_31 0
x0,10_32 0
x0,10_34 0
x0,10_45 0
x0,11_2 0
x0,11_6 0
x0,11_11 0
x0,11_12 0
x0,11_13 0
x0,11_14 0
x0,11_18 0
x0,11_20 0
x0,11_25 0
x0,11_31 0
x0,11_32 0
x0,11_34 0
x0,11_45 0
x0,12_2 0
x0,12_6 0
x0,12_11 0
x0,12_12 0
x0,12_13 0
x0,12_14 0
x0,12_18 0
x0,12_20 0
x0,12_25 0
x0,12_31 0
x0,12_32 0
x0,12_34 0
x0,12_45 0
x0,13_2 0
x0,13_6 0
x0,13_11 0
x0,13_12 0
x0,13_13 0
x0,13_14 0
x0,13_18 0
x0,13_20 0
x0,13_25 0
x0,13_31 0
x0,13_32 0
x0,13_34 0
x0,13_45 0
x0,14_2 0
x0,14_6 0
x0,14_11 0
x0,14_12 0
x0,14_13 0
x0,14_14 0
x0,14_18 0
x0,14_20 0
x0,14_25 0
x0,14_31 0
x0,14_32 0
x0,14_34 0
x0,14_45 0
x0,15_2 0
x0,15_6 0
x0,15_11 0
x0,15_12 0
x0,15_13 0
x0,15_14 0
x0,15_18 0
x0,15_20 0
x0,15_25 0
x0,15_31 0
x0,15_32 0
x0,15_34 0
x0,15_45 0
x1,2_2 1
x1,2_6 0
x1,2_11 0
x1,2_12 0
x1,2_13 0
x1,2_14 0
x1,2_18 0
x1,2_20 0
x1,2_25 0
x1,2_31 0
x1,2_32 0
x1,2_34 0
x1,2_45 0
x1,3_2 0
x1,3_6 0
x1,3_11 0
x1,3_12 0
x1,3_13 0
x1,3_14 1
x1,3_18 0
x1,3_20 0
x1,3_25 0
x1,3_31 0
x1,3_32 0
x1,3_34 0
x1,3_45 0
x1,4_2 0
x1,4_6 0
x1,4_11 0
x1,4_12 0
x1,4_13 0
x1,4_14 0
x1,4_18 0
x1,4_20 1
x1,4_25 0
x1,4_31 0
x1,4_32 0
x1,4_34 0
x1,4_45 0
x1,5_2 0
x1,5_6 0
x1,5_11 0
x1,5_12 0
x1,5_13 0
x1,5_14 0
x1,5_18 0
x1,5_20 0
x1,5_25 0
x1,5_31 0
x1,5_32 0
x1,5_34 1
x1,5_45 0
x1,6_2 0
x1,6_6 0
x1,6_11 0
x1,6_12 0
x1,6_13 0
x1,6_14 0
x1,6_18 0
x1,6_20 0
x1,6_25 0
x1,6_31 0
x1,6_32 0
x1,6_34 0
x1,6_45 0
x1,7_2 0
x1,7_6 0
x1,7_11 0
x1,7_12 0
x1,7_13 0
x1,7_14 0
x1,7_18 0
x1,7_20 0
x1,7_25 0
x1,7_31 0
x1,7_32 0
x1,7_34 0
x1,7_45 0
x1,8_2 0
x1,8_6 0
x1,8_11 0
x1,8_12 0
x1,8_13 0
x1,8_14 0
x1,8_18 0
x1,8_20 0
x1,8_25 0
x1,8_31 0
x1,8_32 0
x1,8_34 0
x1,8_45 0
x1,9_2 0
x1,9_6 0
x1,9_11 0
x1,9_12 0
x1,9_13 0
x1,9_14 0
x1,9_18 0
x1,9_20 0
x1,9_25 0
x1,9_31 0
x1,9_32 0
x1,9_34 0
x1,9_45 0
x1,10_2 0
x1,10_6 0
x1,10_11 0
x1,10_12 0
x1,10_13 0
x1,10_14 0
x1,10_18 0
x1,10_20 0
x1,10_25 0
x1,10_31 0
x1,10_32 0
x1,10_34 0
x1,10_45 0
x1,11_2 0
x1,11_6 0
x1,11_11 0
x1,11_12 0
x1,11_13 0
x1,11_14 0
x1,11_18 0
x1,11_20 0
x1,11_25 0
x1,11_31 0
x1,11_32 0
x1,11_34 0
x1,11_45 0
x1,12_2 0
x1,12_6 0
x1,12_11 0
x1,12_12 0
x1,12_13 0
x1,12_14 0
x1,12_18 0
x1,12_20 0
x1,12_25 0
x1,12_31 0
x1,12_32 0
x1,12_34 0
x1,12_45 0
x1,13_2 0
x1,13_6 0
x1,13_11 0
x1,13_12 0
x1,13_13 0
x1,13_14 0
x1,13_18 0
x1,13_20 0
x1,13_25 0
x1,13_31 0
x1,13_32 0
x1,13_34 0
x1,13_45 0
x1,14_2 0
x1,14_6 0
x1,14_11 0
x1,14_12 0
x1,14_13 0
x1,14_14 0
x1,14_18 0
x1,14_20 0
x1,14_25 0
x1,14_31 0
x1,14_32 0
x1,14_34 0
x1,14_45 0
x1,15_2 0
x1,15_6 0
x1,15_11 0
x1,15_12 0
x1,15_13 0
x1,15_14 0
x1,15_18 0
x1,15_20 0
x1,15_25 0
x1,15_31 0
x1,15_32 0
x1,15_34 0
x1,15_45 0
x2,3_2 0
x2,3_6 0
x2,3_11 0
x2,3_12 1
x2,3_13 0
x2,3_14 0
x2,3_18 0
x2,3_20 0
x2,3_25 0
x2,3_31 0
x2,3_32 0
x2,3_34 0
x2,3_45 0
x2,4_2 0
x2,4_6 0
x2,4_11 0
x2,4_12 0
x2,4_13 0
x2,4_14 0
x2,4_18 1
x2,4_20 0
x2,4_25 0
x2,4_31 0
x2,4_32 0
x2,4_34 0
x2,4_45 0
x2,5_2 0
x2,5_6 0
x2,5_11 0
x2,5_12 0
x2,5_13 0
x2,5_14 0
x2,5_18 0
x2,5_20 0
x2,5_25 0
x2,5_31 0
x2,5_32 1
x2,5_34 0
x2,5_45 0
x2,6_2 0
x2,6_6 0
x2,6_11 0
x2,6_12 0
x2,6_13 0
x2,6_14 0
x2,6_18 0
x2,6_20 0
x2,6_25 0
x2,6_31 0
x2,6_32 0
x2,6_34 0
x2,6_45 0
x2,7_2 0
x2,7_6 0
x2,7_11 0
x2,7_12 0
x2,7_13 0
x2,7_14 0
x2,7_18 0
x2,7_20 0
x2,7_25 0
x2,7_31 0
x2,7_32 0
x2,7_34 0
x2,7_45 0
x2,8_2 0
x2,8_6 0
x2,8_11 0
x2,8_12 0
x2,8_13 0
x2,8_14 0
x2,8_18 0
x2,8_20 0
x2,8_25 0
x2,8_31 0
x2,8_32 0
x2,8_34 0
x2,8_45 0
x2,9_2 0
x2,9_6 0
x2,9_11 0
x2,9_12 0
x2,9_13 0
x2,9_14 0
x2,9_18 0
x2,9_20 0
x2,9_25 0
x2,9_31 0
x2,9_32 0
x2,9_34 0
x2,9_45 0
x2,10_2 0
x2,10_6 0
x2,10_11 0
x2,10_12 0
x2,10_13 0
x2,10_14 0
x2,10_18 0
x2,10_20 0
x2,10_25 0
x2,10_31 0
x2,10_32 0
x2,10_34 0
x2,10_45 0
x2,11_2 0
x2,11_6 0
x2,11_11 0
x2,11_12 0
x2,11_13 0
x2,11_14 0
x2,11_18 0
x2,11_20 0
x2,11_25 0
x2,11_31 0
x2,11_32 0
x2,11_34 0
x2,11_45 0
x2,12_2 0
x2,12_6 0
x2,12_11 0
x2,12_12 0
x2,12_13 0
x2,12_14 0
x2,12_18 0
x2,12_20 0
x2,12_25 0
x2,12_31 0
x2,12_32 0
x2,12_34 0
x2,12_45 0
x2,13_2 0
x2,13_6 0
x2,13_11 0
x2,13_12 0
x2,13_13 0
x2,13_14 0
x2,13_18 0
x2,13_20 0
x2,13_25 0
x2,13_31 0
x2,13_32 0
x2,13_34 0
x2,13_45 0
x2,14_2 0
x2,14_6 0
x2,14_11 0
x2,14_12 0
x2,14_13 0
x2,14_14 0
x2,14_18 0
x2,14_20 0
x2,14_25 0
x2,14_31 0
x2,14_32 0
x2,14_34 0
x2,14_45 0
x2,15_2 0
x2,15_6 0
x2,15_11 0
x2,15_12 0
x2,15_13 0
x2,15_14 0
x2,15_18 0
x2,15_20 0
x2,15_25 0
x2,15_31 0
x2,15_32 0
x2,15_34 0
x2,15_45 0
x3,4_2 0
x3,4_6 1
x3,4_11 0
x3,4_12 0
x3,4_13 0
x3,4_14 0
x3,4_18 0
x3,4_20 0
x3,4_25 0
x3,4_31 0
x3,4_32 0
x3,4_34 0
x3,4_45 0
x3,5_2 0
x3,5_6 0
x3,5_11 0
x3,5_12 0
x3,5_13 0
x3,5_14 0
x3,5_18 0
x3,5_20 1
x3,5_25 0
x3,5_31 0
x3,5_32 0
x3,5_34 0
x3,5_45 0
x3,6_2 0
x3,6_6 0
x3,6_11 0
x3,6_12 0
x3,6_13 0
x3,6_14 0
x3,6_18 0
x3,6_20 0
x3,6_25 0
x3,6_31 0
x3,6_32 0
x3,6_34 0
x3,6_45 0
x3,7_2 0
x3,7_6 0
x3,7_11 0
x3,7_12 0
x3,7_13 0
x3,7_14 0
x3,7_18 0
x3,7_20 0
x3,7_25 0
x3,7_31 0
x3,7_32 0
x3,7_34 0
x3,7_45 0
x3,8_2 0
x3,8_6 0
x3,8_11 0
x3,8_12 0
x3,8_13 0
x3,8_14 0
x3,8_18 0
x3,8_20 0
x3,8_25 0
x3,8_31 0
x3,8_32 0
x3,8_34 0
x3,8_45 0
x3,9_2 0
x3,9_6 0
x3,9_11 0
x3,9_12 0
x3,9_13 0
x3,9_14 0
x3,9_18 0
x3,9_20 0
x3,9_25 0
x3,9_31 0
x3,9_32 0
x3,9_34 0
x3,9_45 0
x3,10_2 0
x3,10_6 0
x3,10_11 0
x3,10_12 0
x3,10_13 0
x3,10_14 0
x3,10_18 0
x3,10_20 0
x3,10_25 0
x3,10_31 0
x3,10_32 0
x3,10_34 0
x3,10_45 0
x3,11_2 0
x3,11_6 0
x3,11_11 0
x3,11_12 0
x3,11_13 0
x3,11_14 0
x3,11_18 0
x3,11_20 0
x3,11_25 0
x3,11_31 0
x3,11_32 0
x3,11_34 0
x3,11_45 0
x3,12_2 0
x3,12_6 0
x3,12_11 0
x3,12_12 0
x3,12_13 0
x3,12_14 0
x3,12_18 0
x3,12_20 0
x3,12_25 0
x3,12_31 0
x3,12_32 0
x3,12_34 0
x3,12_45 0
x3,13_2 0
x3,13_6 0
x3,13_11 0
x3,13_12 0
x3,13_13 0
x3,13_14 0
x3,13_18 0
x3,13_20 0
x3,13_25 0
x3,13_31 0
x3,13_32 0
x3,13_34 0
x3,13_45 0
x3,14_2 0
x3,14_6 0
x3,14_11 0
x3,14_12 0
x3,14_13 0
x3,14_14 0
x3,14_18 0
x3,14_20 0
x3,14_25 0
x3,14_31 0
x3,14_32 0
x3,14_34 0
x3,14_45 0
x3,15_2 0
x3,15_6 0
x3,15_11 0
x3,15_12 0
x3,15_13 0
x3,15_14 0
x3,15_18 0
x3,15_20 0
x3,15_25 0
x3,15_31 0
x3,15_32 0
x3,15_34 0
x3,15_45 0
x4,5_2 0
x4,5_6 0
x4,5_11 0
x4,5_12 0
x4,5_13 0
x4,5_14 1
x4,5_18 0
x4,5_20 0
x4,5_25 0
x4,5_31 0
x4,5_32 0
x4,5_34 0
x4,5_45 0
x4,6_2 0
x4,6_6 0
x4,6_11 0
x4,6_12 0
x4,6_13 0
x4,6_14 0
x4,6_18 0
x4,6_20 0
x4,6_25 0
x4,6_31 0
x4,6_32 0
x4,6_34 0
x4,6_45 0
x4,7_2 0
x4,7_6 0
x4,7_11 0
x4,7_12 0
x4,7_13 0
x4,7_14 0
x4,7_18 0
x4,7_20 0
x4,7_25 0
x4,7_31 0
x4,7_32 0
x4,7_34 0
x4,7_45 0
x4,8_2 0
x4,8_6 0
x4,8_11 0
x4,8_12 0
x4,8_13 0
x4,8_14 0
x4,8_18 0
x4,8_20 0
x4,8_25 0
x4,8_31 0
x4,8_32 0
x4,8_34 0
x4,8_45 0
x4,9_2 0
x4,9_6 0
x4,9_11 0
x4,9_12 0
x4,9_13 0
x4,9_14 0
x4,9_18 0
x4,9_20 0
x4,9_25 0
x4,9_31 0
x4,9_32 0
x4,9_34 0
x4,9_45 0
x4,10_2 0
x4,10_6 0
x4,10_11 0
x4,10_12 0
x4,10_13 0
x4,10_14 0
x4,10_18 0
x4,10_20 0
x4,10_25 0
x4,10_31 0
x4,10_32 0
x4,10_34 0
x4,10_45 0
x4,11_2 0
x4,11_6 0
x4,11_11 0
x4,11_12 0
x4,11_13 0
x4,11_14 0
x4,11_18 0
x4,11_20 0
x4,11_25 0
x4,11_31 0
x4,11_32 0
x4,11_34 0
x4,11_45 0
x4,12_2 0
x4,12_6 0
x4,12_11 0
x4,12_12 0
x4,12_13 0
x4,12_14 0
x4,12_18 0
x4,12_20 0
x4,12_25 0
x4,12_31 0
x4,12_32 0
x4,12_34 0
x4,12_45 0
x4,13_2 0
x4,13_6 0
x4,13_11 0
x4,13_12 0
x4,13_13 0
x4,13_14 0
x4,13_18 0
x4,13_20 0
x4,13_25 0
x4,13_31 0
x4,13_32 0
x4,13_34 0
x4,13_45 0
x4,14_2 0
x4,14_6 0
x4,14_11 0
x4,14_12 0
x4,14_13 0
x4,14_14 0
x4,14_18 0
x4,14_20 0
x4,14_25 0
x4,14_31 0
x4,14_32 0
x4,14_34 0
x4,14_45 0
x4,15_2 0
x4,15_6 0
x4,15_11 0
x4,15_12 0
x4,15_13 0
x4,15_14 0
x4,15_18 0
x4,15_20 0
x4,15_25 0
x4,15_31 0
x4,15_32 0
x4,15_34 0
x4,15_45 0
x5,6_2 0
x5,6_6 0
x5,6_11 0
x5,6_12 0
x5,6_13 0
x5,6_14 0
x5,6_18 0
x5,6_20 0
x5,6_25 0
x5,6_31 0
x5,6_32 0
x5,6_34 0
x5,6_45 0
x5,7_2 0
x5,7_6 0
x5,7_11 0
x5,7_12 0
x5,7_13 0
x5,7_14 0
x5,7_18 0
x5,7_20 0
x5,7_25 0
x5,7_31 0
x5,7_32 0
x5,7_34 0
x5,7_45 0
x5,8_2 0
x5,8_6 0
x5,8_11 0
x5,8_12 0
x5,8_13 0
x5,8_14 0
x5,8_18 0
x5,8_20 0
x5,8_25 0
x5,8_31 0
x5,8_32 0
x5,8_34 0
x5,8_45 0
x5,9_2 0
x5,9_6 0
x5,9_11 0
x5,9_12 0
x5,9_13 0
x5,9_14 0
x5,9_18 0
x5,9_20 0
x5,9_25 0
x5,9_31 0
x5,9_32 0
x5,9_34 0
x5,9_45 0
x5,10_2 0
x5,10_6 0
x5,10_11 0
x5,10_12 0
x5,10_13 0
x5,10_14 0
x5,10_18 0
x5,10_20 0
x5,10_25 0
x5,10_31 0
x5,10_32 0
x5,10_34 0
x5,10_45 0
x5,11_2 0
x5,11_6 0
x5,11_11 0
x5,11_12 0
x5,11_13 0
x5,11_14 0
x5,11_18 0
x5,11_20 0
x5,11_25 0
x5,11_31 0
x5,11_32 0
x5,11_34 0
x5,11_45 0
x5,12_2 0
x5,12_6 0
x5,12_11 0
x5,12_12 0
x5,12_13 0
x5,12_14 0
x5,12_18 0
x5,12_20 0
x5,12_25 0
x5,12_31 0
x5,12_32 0
x5,12_34 0
x5,12_45 0
x5,13_2 0
x5,13_6 0
x5,13_11 0
x5,13_12 0
x5,13_13 0
x5,13_14 0
x5,13_18 0
x5,13_20 0
x5,13_25 0
x5,13_31 0
x5,13_32 0
x5,13_34 0
x5,13_45 0
x5,14_2 0
x5,14_6 0
x5,14_11 0
x5,14_12 0
x5,14_13 0
x5,14_14 0
x5,14_18 0
x5,14_20 0
x5,14_25 0
x5,14_31 0
x5,14_32 0
x5,14_34 0
x5,14_45 0
x5,15_2 0
x5,15_6 0
x5,15_11 0
x5,15_12 0
x5,15_13 0
x5,15_14 0
x5,15_18 0
x5,15_20 0
x5,15_25 0
x5,15_31 0
x5,15_32 0
x5,15_34 0
x5,15_45 0
x6,7_2 0
x6,7_6 0
x6,7_11 0
x6,7_12 0
x6,7_13 0
x6,7_14 0
x6,7_18 0
x6,7_20 0
x6,7_25 0
x6,7_31 0
x6,7_32 0
x6,7_34 0
x6,7_45 0
x6,8_2 0
x6,8_6 0
x6,8_11 0
x6,8_12 0
x6,8_13 0
x6,8_14 0
x6,8_18 0
x6,8_20 0
x6,8_25 0
x6,8_31 0
x6,8_32 0
x6,8_34 0
x6,8_45 0
x6,9_2 0
x6,9_6 0
x6,9_11 0
x6,9_12 0
x6,9_13 0
x6,9_14 0
x6,9_18 0
x6,9_20 0
x6,9_25 0
x6,9_31 0
x6,9_32 0
x6,9_34 0
x6,9_45 0
x6,10_2 0
x6,10_6 0
x6,10_11 0
x6,10_12 0
x6,10_13 0
x6,10_14 0
x6,10_18 0
x6,10_20 0
x6,10_25 0
x6,10_31 0
x6,10_32 0
x6,10_34 0
x6,10_45 0
x6,11_2 0
x6,11_6 0
x6,11_11 0
x6,11_12 0
x6,11_13 0
x6,11_14 0
x6,11_18 0
x6,11_20 0
x6,11_25 0
x6,11_31 0
x6,11_32 0
x6,11_34 0
x6,11_45 0
x6,12_2 0
x6,12_6 0
x6,12_11 0
x6,12_12 0
x6,12_13 0
x6,12_14 0
x6,12_18 0
x6,12_20 0
x6,12_25 0
x6,12_31 0
x6,12_32 0
x6,12_34 0
x6,12_45 0
x6,13_2 0
x6,13_6 0
x6,13_11 0
x6,13_12 0
x6,13_13 0
x6,13_14 0
x6,13_18 0
x6,13_20 0
x6,13_25 0
x6,13_31 0
x6,13_32 0
x6,13_34 0
x6,13_45 0
x6,14_2 0
x6,14_6 0
x6,14_11 0
x6,14_12 0
x6,14_13 0
x6,14_14 0
x6,14_18 0
x6,14_20 0
x6,14_25 0
x6,14_31 0
x6,14_32 0
x6,14_34 0
x6,14_45 0
x6,15_2 0
x6,15_6 0
x6,15_11 0
x6,15_12 0
x6,15_13 0
x6,15_14 0
x6,15_18 0
x6,15_20 0
x6,15_25 0
x6,15_31 0
x6,15_32 0
x6,15_34 0
x6,15_45 0
x7,8_2 0
x7,8_6 0
x7,8_11 0
x7,8_12 0
x7,8_13 0
x7,8_14 0
x7,8_18 0
x7,8_20 0
x7,8_25 0
x7,8_31 0
x7,8_32 0
x7,8_34 0
x7,8_45 0
x7,9_2 0
x7,9_6 0
x7,9_11 0
x7,9_12 0
x7,9_13 0
x7,9_14 0
x7,9_18 0
x7,9_20 0
x7,9_25 0
x7,9_31 0
x7,9_32 0
x7,9_34 0
x7,9_45 0
x7,10_2 0
x7,10_6 0
x7,10_11 0
x7,10_12 0
x7,10_13 0
x7,10_14 0
x7,10_18 0
x7,10_20 0
x7,10_25 0
x7,10_31 0
x7,10_32 0
x7,10_34 0
x7,10_45 0
x7,11_2 0
x7,11_6 0
x7,11_11 0
x7,11_12 0
x7,11_13 0
x7,11_14 0
x7,11_18 0
x7,11_20 0
x7,11_25 0
x7,11_31 0
x7,11_32 0
x7,11_34 0
x7,11_45 0
x7,12_2 0
x7,12_6 0
x7,12_11 0
x7,12_12 0
x7,12_13 0
x7,12_14 0
x7,12_18 0
x7,12_20 0
x7,12_25 0
x7,12_31 0
x7,12_32 0
x7,12_34 0
x7,12_45 0
x7,13_2 0
x7,13_6 0
x7,13_11 0
x7,13_12 0
x7,13_13 0
x7,13_14 0
x7,13_18 0
x7,13_20 0
x7,13_25 0
x7,13_31 0
x7,13_32 0
x7,13_34 0
x7,13_45 0
x7,14_2 0
x7,14_6 0
x7,14_11 0
x7,14_12 0
x7,14_13 0
x7,14_14 0
x7,14_18 0
x7,14_20 0
x7,14_25 0
x7,14_31 0
x7,14_32 0
x7,14_34 0
x7,14_45 0
x7,15_2 0
x7,15_6 0
x7,15_11 0
x7,15_12 0
x7,15_13 0
x7,15_14 0
x7,15_18 0
x7,15_20 0
x7,15_25 0
x7,15_31 0
x7,15_32 0
x7,15_34 0
x7,15_45 0
x8,9_2 0
x8,9_6 0
x8,9_11 0
x8,9_12 0
x8,9_13 0
x8,9_14 0
x8,9_18 0
x8,9_20 0
x8,9_25 0
x8,9_31 0
x8,9_32 0
x8,9_34 0
x8,9_45 0
x8,10_2 0
x8,10_6 0
x8,10_11 0
x8,10_12 0
x8,10_13 0
x8,10_14 0
x8,10_18 0
x8,10_20 0
x8,10_25 0
x8,10_31 0
x8,10_32 0
x8,10_34 0
x8,10_45 0
x8,11_2 0
x8,11_6 0
x8,11_11 0
x8,11_12 0
x8,11_13 0
x8,11_14 0
x8,11_18 0
x8,11_20 0
x8,11_25 0
x8,11_31 0
x8,11_32 0
x8,11_34 0
x8,11_45 0
x8,12_2 0
x8,12_6 0
x8,12_11 0
x8,12_12 0
x8,12_13 0
x8,12_14 0
x8,12_18 0
x8,12_20 0
x8,12_25 0
x8,12_31 0
x8,12_32 0
x8,12_34 0
x8,12_45 0
x8,13_2 0
x8,13_6 0
x8,13_11 0
x8,13_12 0
x8,13_13 0
x8,13_14 0
x8,13_18 0
x8,13_20 0
x8,13_25 0
x8,13_31 0
x8,13_32 0
x8,13_34 0
x8,13_45 0
x8,14_2 0
x8,14_6 0
x8,14_11 0
x8,14_12 0
x8,14_13 0
x8,14_14 0
x8,14_18 0
x8,14_20 0
x8,14_25 0
x8,14_31 0
x8,14_32 0
x8,14_34 0
x8,14_45 0
x8,15_2 0
x8,15_6 0
x8,15_11 0
x8,15_12 0
x8,15_13 0
x8,15_14 0
x8,15_18 0
x8,15_20 0
x8,15_25 0
x8,15_31 0
x8,15_32 0
x8,15_34 0
x8,15_45 0
x9,10_2 0
x9,10_6 0
x9,10_11 0
x9,10_12 0
x9,10_13 0
x9,10_14 0
x9,10_18 0
x9,10_20 0
x9,10_25 0
x9,10_31 0
x9,10_32 0
x9,10_34 0
x9,10_45 0
x9,11_2 0
x9,11_6 0
x9,11_11 0
x9,11_12 0
x9,11_13 0
x9,11_14 0
x9,11_18 0
x9,11_20 0
x9,11_25 0
x9,11_31 0
x9,11_32 0
x9,11_34 0
x9,11_45 0
x9,12_2 0
x9,12_6 0
x9,12_11 0
x9,12_12 0
x9,12_13 0
x9,12_14 0
x9,12_18 0
x9,12_20 0
x9,12_25 0
x9,12_31 0
x9,12_32 0
x9,12_34 0
x9,12_45 0
x9,13_2 0
x9,13_6 0
x9,13_11 0
x9,13_12 0
x9,13_13 0
x9,13_14 0
x9,13_18 0
x9,13_20 0
x9,13_25 0
x9,13_31 0
x9,13_32 0
x9,13_34 0
x9,13_45 0
x9,14_2 0
x9,14_6 0
x9,14_11 0
x9,14_12 0
x9,14_13 0
x9,14_14 0
x9,14_18 0
x9,14_20 0
x9,14_25 0
x9,14_31 0
x9,14_32 0
x9,14_34 0
x9,14_45 0
x9,15_2 0
x9,15_6 0
x9,15_11 0
x9,15_12 0
x9,15_13 0
x9,15_14 0
x9,15_18 0
x9,15_20 0
x9,15_25 0
x9,15_31 0
x9,15_32 0
x9,15_34 0
x9,15_45 0
x10,11_2 0
x10,11_6 0
x10,11_11 0
x10,11_12 0
x10,11_13 0
x10,11_14 0
x10,11_18 0
x10,11_20 0
x10,11_25 0
x10,11_31 0
x10,11_32 0
x10,11_34 0
x10,11_45 0
x10,12_2 0
x10,12_6 0
x10,12_11 0
x10,12_12 0
x10,12_13 0
x10,12_14 0
x10,12_18 0
x10,12_20 0
x10,12_25 0
x10,12_31 0
x10,12_32 0
x10,12_34 0
x10,12_45 0
x10,13_2 0
x10,13_6 0
x10,13_11 0
x10,13_12 0
x10,13_13 0
x10,13_14 0
x10,13_18 0
x10,13_20 0
x10,13_25 0
x10,13_31 0
x10,13_32 0
x10,13_34 0
x10,13_45 0
x10,14_2 0
x10,14_6 0
x10,14_11 0
x10,14_12 0
x10,14_13 0
x10,14_14 0
x10,14_18 0
x10,14_20 0
x10,14_25 0
x10,14_31 0
x10,14_32 0
x10,14_34 0
x10,14_45 0
x10,15_2 0
x10,15_6 0
x10,15_11 0
x10,15_12 0
x10,15_13 0
x10,15_14 0
x10,15_18 0
x10,15_20 0
x10,15_25 0
x10,15_31 0
x10,15_32 0
x10,15_34 0
x10,15_45 0
x11,12_2 0
x11,12_6 0
x11,12_11 0
x11,12_12 0
x11,12_13 0
x11,12_14 0
x11,12_18 0
x11,12_20 0
x11,12_25 0
x11,12_31 0
x11,12_32 0
x11,12_34 0
x11,12_45 0
x11,13_2 0
x11,13_6 0
x11,13_11 0
x11,13_12 0
x11,13_13 0
x11,13_14 0
x11,13_18 0
x11,13_20 0
x11,13_25 0
x11,13_31 0
x11,13_32 0
x11,13_34 0
x11,13_45 0
x11,14_2 0
x11,14_6 0
x11,14_11 0
x11,14_12 0
x11,14_13 0
x11,14_14 0
x11,14_18 0
x11,14_20 0
x11,14_25 0
x11,14_31 0
x11,14_32 0
x11,14_34 0
x11,14_45 0
x11,15_2 0
x11,15_6 0
x11,15_11 0
x11,15_12 0
x11,15_13 0
x11,15_14 0
x11,15_18 0
x11,15_20 0
x11,15_25 0
x11,15_31 0
x11,15_32 0
x11,15_34 0
x11,15_45 0
x12,13_2 0
x12,13_6 0
x12,13_11 0
x12,13_12 0
x12,13_13 0
x12,13_14 0
x12,13_18 0
x12,13_20 0
x12,13_25 0
x12,13_31 0
x12,13_32 0
x12,13_34 0
x12,13_45 0
x12,14_2 0
x12,14_6 0
x12,14_11 0
x12,14_12 0
x12,14_13 0
x12,14_14 0
x12,14_18 0
x12,14_20 0
x12,14_25 0
x12,14_31 0
x12,14_32 0
x12,14_34 0
x12,14_45 0
x12,15_2 0
x12,15_6 0
x12,15_11 0
x12,15_12 0
x12,15_13 0
x12,15_14 0
x12,15_18 0
x12,15_20 0
x12,15_25 0
x12,15_31 0
x12,15_32 0
x12,15_34 0
x12,15_45 0
x13,14_2 0
x13,14_6 0
x13,14_11 0
x13,14_12 0
x13,14_13 0
x13,14_14 0
x13,14_18 0
x13,14_20 0
x13,14_25 0
x13,14_31 0
x13,14_32 0
x13,14_34 0
x13,14_45 0
x13,15_2 0
x13,15_6 0
x13,15_11 0
x13,15_12 0
x13,15_13 0
x13,15_14 0
x13,15_18 0
x13,15_20 0
x13,15_25 0
x13,15_31 0
x13,15_32 0
x13,15_34 0
x13,15_45 0
x14,15_2 0
x14,15_6 0
x14,15_11 0
x14,15_12 0
x14,15_13 0
x14,15_14 0
x14,15_18 0
x14,15_20 0
x14,15_25 0
x14,15_31 0
x14,15_32 0
x14,15_34 0
x14,15_45 0
z0 1
z1 1
z2 1
z3 1
z4 1
z5 1
z6 0
z7 0
z8 0
z9 0
z10 0
z11 0
z12 0
z13 0
z14 0
z15 0
p0 4
p1 15
p2 17
p3 29
p4 35
p5 49
p6 52
p7 58
p8 67
p9 68
p10 69
p11 70
p12 71
p13 72
p14 79
p15 87
